c Sudoku solution
p cnf 729 0
115 0
192 0
211 0
256 0
275 0
336 0
357 0
363 0
345 0
398 0
425 0
469 0
482 0
551 0
597 0
658 0
699 0
723 0
812 0
322 0
828 0
853 0
454 0
159 0
895 0
944 0
983 0
991 0
621 0
471 0
381 0
379 0
314 0
127 0
229 0
287 0
524 0
926 0
749 0
717 0
919 0
935 0
889 0
952 0
755 0
772 0
539 0
632 0
437 0
418 0
443 0
496 0
293 0
133 0
238 0
264 0
242 0
546 0
562 0
665 0
647 0
585 0
684 0
673 0
578 0
513 0
616 0
841 0
731 0
834 0
148 0
161 0
174 0
186 0
876 0
794 0
788 0
977 0
766 0
867 0
968 0
